clingo version 5.6.2
Reading from ...etition/0045-graph_colouring-145-0.asp ...
Solving...
UNSATISFIABLE

Models       : 0
Calls        : 1
Time         : 134.014s (Solving: 133.79s 1st Model: 0.00s Unsat: 133.79s)
CPU Time     : 133.951s

Choices      : 3642195 
Conflicts    : 3368354  (Analyzed: 3368353)
Restarts     : 8008     (Average: 420.62 Last: 59)
Problems     : 1        (Average Length: 0.00 Splits: 0)
Lemmas       : 3368353  (Deleted: 3307039)
  Binary     : 349      (Ratio:   0.01%)
  Ternary    : 2211     (Ratio:   0.07%)
  Conflict   : 3368353  (Average Length:   28.0 Ratio: 100.00%) 
  Loop       : 0        (Average Length:    0.0 Ratio:   0.00%) 
  Other      : 0        (Average Length:    0.0 Ratio:   0.00%) 
Backjumps    : 3368353  (Average:  1.07 Max:  11 Sum: 3594221)
  Executed   : 3368353  (Average:  1.07 Max:  11 Sum: 3594221 Ratio: 100.00%)
  Bounded    : 0        (Average:  0.00 Max:   0 Sum:      0 Ratio:   0.00%)

Rules        : 21204   
Atoms        : 3852    
Bodies       : 1430    
Equivalences : 2824     (Atom=Atom: 16 Body=Body: 702 Other: 2106)
Tight        : Yes
Variables    : 857      (Eliminated:    0 Frozen:    0)
Constraints  : 8522     (Binary:  90.1% Ternary:   0.0% Other:   9.8%)

